Route #1: 1 39 45 5 18 49 25 40 53 14 9 41 1 
Route #2: 1 1 16 54 61 21 7 24 11 31 50 29 1 
Route #3: 1 15 62 48 38 43 10 59 1 
Route #4: 1 2 12 6 27 8 19 1 
Route #5: 1 37 60 55 44 23 1 
Route #6: 1 42 3 17 36 4 51 1 
Route #7: 1 35 33 34 22 58 1 
Route #8: 1 46 47 57 1 
Route #9: 1 56 20 26 30 52 1 
Route #10: 1 13 28 32 1 

Cost 2010.07
Time 0.5398


 * Another infos *

 Iterations: 63 Time: 0.5398 sec - 0.0090 min - 0.0001 horas
0.0000 h 0.0090 min
Problem dimension: 63
